(set-logic ALL)
(declare-const self String)
(declare-const box String)
(assert (not (< (+ (- 1) (str.len box)) 0)))
(assert (not (< (str.len (str.substr box 4 (- (+ (- 1) (str.len box)) 4))) 0)))
(assert (not (= (+ 0 (str.indexof (str.substr box 4 (- (+ (- 1) (str.len box)) 4)) "," 0)) (- 1))))
(check-sat)
(get-value (self))
(get-value (box))
